NAME: rd100
DIMENSION: 19
EDGE_WEIGHT_TYPE: EUC_2D
NODE_COORD_SECTION
1 144 863
2 882 1
3 545 735
4 503 876
5 205 345
6 702 577
7 147 164
8 135 808
9 629 977
10 675 731
11 314 299
12 446 982
13 355 765
14 398 976
15 273 854
16 666 312
17 877 925
18 134 950
19 967 727
ACCEPTED_PROBABILITIES
0.0
0.9
0.64
0.02
0.67
0.33
0.64
0.64
0.97
0.43
0.33
0.76
0.2
0.38
0.12
0.16
0.54
0.84
0.26
OUTSOURCING_COSTS
0.0
0.2
56.14
11.04
25.83
47.59
45.62
28.35
12.79
59.43
7.31
20.31
57.17
13.07
41.4
59.78
45.93
4.72
1.36
